np = 4;                                    

n = ["nvidia_force","amd_tactile","intel_fused","nxp_force"];

dd =             [| 1,   1,   50, 400,    % PF1
                  | 2,   0,  100, 100,    % PF2
                  | 3,   0,   10, 400,    % PF3
                  | 4,   1,    0,  50|];  % PF4


min_force_sensor_count  = 1;
min_tactile_sensor_count= 100;
min_memory_fused        = 400;

platforms = {1,2,3,4};

